c A SAT instance generated from a 3-CNF formula that had 10 clauses and 5 variables
p cnf 5 10
2 4 1 0
-2 -5 3 0
4 2 3 0
-2 1 -5 0
1 -4 3 0
-4 3 1 0
2 5 3 0
-3 5 -4 0
2 5 4 0
3 2 -4 0
%
0

95 31 69 86 19
